(set-info :source |printed by MathSAT|)
(declare-fun |!{$(in_main#0)<N>}| () Int)
(declare-fun |!{$(in_main#0)<N>}.next| () Int)
(declare-fun |!{$(in_main#0)<i>}| () Int)
(declare-fun |!{$(in_main#0)<i>}.next| () Int)
(declare-fun |!{$(in_main#0)<k>}| () Int)
(declare-fun |!{$(in_main#0)<k>}.next| () Int)
(declare-fun |!{$(in_main#0)<a.1>}| () (Array Int Int))
(declare-fun |!{$(in_main#0)<a.1>}.next| () (Array Int Int))
(declare-fun |!{$(in_main#0)<$(in___VERIFIER_nondet_int#0)<h#<__VERIFIER_nondet_int.return>>>}| () Int)
(declare-fun !pc () Int)
(declare-fun !pc.next () Int)
(declare-fun |%{$(in_main#0)<k>}#1| () Int)
(declare-fun |%{$(in_main#0)<a.1>}#1| () (Array Int Int))
(define-fun .def_27 () Int (! !pc :next !pc.next))
(define-fun .def_30 () Bool (! (= .def_27 2) :init true))
(define-fun .def_133 () Bool (= .def_27 38))
(define-fun .def_99 () Bool (= !pc.next 53))
(define-fun .def_136 () Bool (and .def_99 .def_133))
(define-fun .def_129 () Bool (= |!{$(in_main#0)<k>}.next| 0))
(define-fun .def_10 () Int (! |!{$(in_main#0)<i>}| :next |!{$(in_main#0)<i>}.next|))
(define-fun .def_74 () Bool (= .def_10 |!{$(in_main#0)<i>}.next|))
(define-fun .def_8 () Int (! |!{$(in_main#0)<N>}| :next |!{$(in_main#0)<N>}.next|))
(define-fun .def_72 () Bool (= .def_8 |!{$(in_main#0)<N>}.next|))
(define-fun .def_81 () Bool (and .def_72 .def_74))
(define-fun .def_130 () Bool (and .def_81 .def_129))
(define-fun .def_14 () (Array Int Int) (! |!{$(in_main#0)<a.1>}| :next |!{$(in_main#0)<a.1>}.next|))
(define-fun .def_78 () Bool (= .def_14 |!{$(in_main#0)<a.1>}.next|))
(define-fun .def_131 () Bool (and .def_78 .def_130))
(define-fun .def_110 () Bool (<= .def_10 .def_8))
(define-fun .def_120 () Bool (not .def_110))
(define-fun .def_132 () Bool (and .def_120 .def_131))
(define-fun .def_137 () Bool (and .def_132 .def_136))
(define-fun .def_54 () Bool (= !pc.next 38))
(define-fun .def_134 () Bool (and .def_54 .def_133))
(define-fun .def_111 () Int (* 3 .def_10))
(define-fun .def_117 () Int (+ .def_111 2))
(define-fun .def_114 () Int (+ .def_111 1))
(define-fun .def_112 () (Array Int Int) (store .def_14 .def_111 0))
(define-fun .def_115 () (Array Int Int) (store .def_112 .def_114 0))
(define-fun .def_118 () (Array Int Int) (store .def_115 .def_117 0))
(define-fun .def_126 () Bool (= |!{$(in_main#0)<a.1>}.next| .def_118))
(define-fun .def_121 () Int (* (- 1) |!{$(in_main#0)<i>}.next|))
(define-fun .def_122 () Int (+ .def_10 .def_121))
(define-fun .def_123 () Bool (= .def_122 (- 1)))
(define-fun .def_124 () Bool (and .def_72 .def_123))
(define-fun .def_12 () Int (! |!{$(in_main#0)<k>}| :next |!{$(in_main#0)<k>}.next|))
(define-fun .def_76 () Bool (= .def_12 |!{$(in_main#0)<k>}.next|))
(define-fun .def_125 () Bool (and .def_76 .def_124))
(define-fun .def_127 () Bool (and .def_125 .def_126))
(define-fun .def_128 () Bool (and .def_110 .def_127))
(define-fun .def_135 () Bool (and .def_128 .def_134))
(define-fun .def_138 () Bool (or .def_135 .def_137))
(define-fun .def_103 () Bool (= !pc.next 0))
(define-fun .def_94 () Bool (= .def_27 53))
(define-fun .def_104 () Bool (and .def_94 .def_103))
(define-fun .def_60 () Int (* (- 1) .def_12))
(define-fun .def_58 () Int (* 3 .def_8))
(define-fun .def_61 () Int (+ .def_58 .def_60))
(define-fun .def_62 () Bool (<= 0 .def_61))
(define-fun .def_71 () Bool (not .def_62))
(define-fun .def_89 () Bool (and .def_71 .def_72))
(define-fun .def_90 () Bool (and .def_74 .def_89))
(define-fun .def_91 () Bool (and .def_76 .def_90))
(define-fun .def_92 () Bool (and .def_78 .def_91))
(define-fun .def_105 () Bool (and .def_92 .def_104))
(define-fun .def_100 () Bool (and .def_94 .def_99))
(define-fun .def_82 () Int (* (- 1) |!{$(in_main#0)<k>}.next|))
(define-fun .def_83 () Int (+ .def_12 .def_82))
(define-fun .def_84 () Bool (= .def_83 (- 1)))
(define-fun .def_85 () Bool (and .def_81 .def_84))
(define-fun .def_86 () Bool (and .def_78 .def_85))
(define-fun .def_63 () Int (select .def_14 .def_12))
(define-fun .def_64 () Bool (<= 0 .def_63))
(define-fun .def_65 () Int (ite .def_64 1 0))
(define-fun .def_66 () Bool (= .def_65 0))
(define-fun .def_67 () Bool (not .def_66))
(define-fun .def_87 () Bool (and .def_67 .def_86))
(define-fun .def_88 () Bool (and .def_62 .def_87))
(define-fun .def_101 () Bool (and .def_88 .def_100))
(define-fun .def_96 () Bool (= !pc.next 73))
(define-fun .def_97 () Bool (and .def_94 .def_96))
(define-fun .def_73 () Bool (and .def_66 .def_72))
(define-fun .def_75 () Bool (and .def_73 .def_74))
(define-fun .def_77 () Bool (and .def_75 .def_76))
(define-fun .def_79 () Bool (and .def_77 .def_78))
(define-fun .def_80 () Bool (and .def_62 .def_79))
(define-fun .def_98 () Bool (and .def_80 .def_97))
(define-fun .def_102 () Bool (or .def_98 .def_101))
(define-fun .def_106 () Bool (or .def_102 .def_105))
(define-fun .def_55 () Bool (and .def_30 .def_54))
(define-fun .def_50 () Bool (= |!{$(in_main#0)<a.1>}.next| |%{$(in_main#0)<a.1>}#1|))
(define-fun .def_48 () Bool (= |!{$(in_main#0)<k>}.next| |%{$(in_main#0)<k>}#1|))
(define-fun .def_46 () Bool (= |!{$(in_main#0)<i>}.next| 0))
(define-fun .def_45 () Bool (= |!{$(in_main#0)<N>}.next| |!{$(in_main#0)<$(in___VERIFIER_nondet_int#0)<h#<__VERIFIER_nondet_int.return>>>}|))
(define-fun .def_47 () Bool (and .def_45 .def_46))
(define-fun .def_49 () Bool (and .def_47 .def_48))
(define-fun .def_51 () Bool (and .def_49 .def_50))
(define-fun .def_41 () Bool (<= 0 |!{$(in_main#0)<$(in___VERIFIER_nondet_int#0)<h#<__VERIFIER_nondet_int.return>>>}|))
(define-fun .def_42 () Int (ite .def_41 1 0))
(define-fun .def_43 () Bool (= .def_42 0))
(define-fun .def_44 () Bool (not .def_43))
(define-fun .def_52 () Bool (and .def_44 .def_51))
(define-fun .def_56 () Bool (and .def_52 .def_55))
(define-fun .def_107 () Bool (or .def_56 .def_106))
(define-fun .def_139 () Bool (! (or .def_107 .def_138) :trans true))
(define-fun .def_108 () Bool (= .def_27 73))
(define-fun .def_140 () Bool (! (not .def_108) :invar-property 0 :invar-property-name ||))
(assert true)
